&bands
  outdir='./'
  prefix='diam'
  filband='diam-dft'
/
