&control
    calculation = 'bands'
    etot_conv_thr =   8.0000000000d-04
    forc_conv_thr =   1.0000000000d-03
    outdir='./'
    prefix = 'diam'
    pseudo_dir='./'    
    tprnfor = .true.
    tstress = .true.
    verbosity = 'high'
/
&system
    ibrav=0
    celldm(1)=6.64245
    nat=2
    ntyp=1
    ecutwfc=80
    occupations='fixed'
    smearing='mp'
    degauss=0.02
    nbnd=8
/
&electrons
    conv_thr=1.0d-14
    mixing_beta = 0.7   
/
ATOMIC_SPECIES
  C  12.01078  C.upf
CELL_PARAMETERS (alat)
  -0.506207309   0.000000000   0.506207309
   0.000000000   0.506207309   0.506207309
  -0.506207309   0.506207309   0.000000000
ATOMIC_POSITIONS crystal
  C  0.000000000000  0.000000000000  0.000000000000
  C  0.250000000000  0.250000000000  0.250000000000
K_POINTS {crystal_b}
3
  0.0000 0.5000 0.0000 20 !Gamma
  0.5000000000	0.0000000000	0.5000000000 20 !X
  0.6250000000	0.2500000000	0.6250000000 20 !U
