&control
    calculation='nscf'
    prefix='diam'
    restart_mode='from_scratch'
    pseudo_dir='./'
    outdir='./'
    tprnfor=.true.
    tstress=.true.
    verbosity='high'
/
&system
    ibrav=0
    celldm(1)=6.64245
    nat=2
    ntyp=1
    ecutwfc=80
    occupations='fixed'
    smearing='mp'
    degauss=0.02
    nbnd=8
    !             !soc
    ! noncolin = .true.
    ! lspinorb = .true.
/
&electrons
    diagonalization='david'
    mixing_beta=0.7
    conv_thr=1.0d-10
    diago_full_acc=.true.
/
ATOMIC_SPECIES
  C  12.01078  C.upf
CELL_PARAMETERS (alat)
-0.506207309   0.000000000   0.506207309
  0.000000000   0.506207309   0.506207309
-0.506207309   0.506207309   0.000000000
ATOMIC_POSITIONS crystal
  C  0.000000000000  0.000000000000  0.000000000000
  C  0.250000000000  0.250000000000  0.250000000000
K_POINTS crystal
8
0.0   0.0   0.0   0.125
0.0   0.0   0.5   0.125
0.0   0.5   0.0   0.125
0.0   0.5   0.5   0.125
0.5   0.0   0.0   0.125
0.5   0.0   0.5   0.125
0.5   0.5   0.0   0.125
0.5   0.5   0.5   0.125
