--
&inputph
  tr2_ph=1.0d-14,
  prefix='diam',
  amass(1)=12.01078,
  outdir='./',
  fildyn='diam.dyn',
  fildvscf='dvscf',
  ldisp=.true.,
  nq1=2, nq2=2, nq3=2
/

