&input
  fildyn = 'diam.dyn'
  zasr = 'simple'
  flfrc = 'diam.k666.fc'
/
